(set-logic QF_S)
(set-option :strings-exp true)
(set-option :produce-models true)
(declare-fun sigmaStar_0 () String)
(declare-fun literal_1 () String)
(assert (= literal_1 "\x44\x72\x61\x77\x20\x6d\x6f\x64\x65\x20\x28\x64\x65\x66\x61\x75\x6c\x74\x73\x20\x67\x75\x65\x73\x73\x65\x64\x20\x66\x6f\x72\x20\x79\x6f\x75\x72\x20\x62\x72\x6f\x77\x73\x65\x72\x29\x3a"))
(assert (str.in.re literal_1 (re.++ (re.* re.allchar) (re.++ (str.to.re "\x5c\x3c\x53\x43\x52\x49\x50\x54") (re.* re.allchar)))))
(check-sat)
(get-model)
